Data path: /scratch/opt/lxu/CFLG/benchmarks/random_A
Instance: r_15_0.4_45.txt
Result path: /scratch/opt/lxu/CFLG/results/random_A
Solver: Gurobi
Time limit: 3600
Formulation: LEFP
Cover: Small
julia --project=. src/main.jl /scratch/opt/lxu/CFLG/benchmarks/random_A r_15_0.4_45.txt /scratch/opt/lxu/CFLG/results/random_A Gurobi 3600 LEFP Small
The latest version of Julia in the `release` channel is 1.11.5+0.x64.linux.gnu. You currently have `1.11.4+0.x64.linux.gnu` installed. Run:

  juliaup update

in your terminal shell to install Julia 1.11.5+0.x64.linux.gnu and update the `release` channel to that version.
/scratch/opt/lxu/CFLG/benchmarks/random_A Gurobi 3600.0 /scratch/opt/lxu/CFLG/results/random_A r_15_0.4_45.txt LEFP Small
/scratch/opt/lxu/CFLG/benchmarks/random_A/r_15_0.4_45.txt

 read graph
data loaded


after absorb:15 15

max_piece:6
problem_graph/original graph: node: 19/15 edge: 49/45 dlt: 0.1687364095099824 break_avg_len: 0.619848034934629 break_max_len: 0.9953368121261363elapsed CPU time: 0.045826 seconds
Set parameter TokenServer to value "solice01.zib.de"
Set parameter Threads to value 1
Set parameter OutputFlag to value 1
Set parameter MIPGap to value 0.0001
Set parameter MIPGapAbs to value 1
Set parameter TimeLimit to value 3599.954174

 more cuts:false
formulation:LEFP41 8 4

 model loaded

Gurobi Optimizer version 12.0.1 build v12.0.1rc0 (linux64 - "Debian GNU/Linux 12 (bookworm)")

CPU model: Intel(R) Xeon(R) Gold 5122 CPU @ 3.60GHz, instruction set [SSE2|AVX|AVX2|AVX512]
Thread count: 8 physical cores, 16 logical processors, using up to 1 threads

Non-default parameters:
TimeLimit  3599.954174
MIPGapAbs  1
Threads  1

Optimize a model with 982 rows, 491 columns and 2004 nonzeros
Model fingerprint: 0xd9b7f8d2
Variable types: 166 continuous, 325 integer (243 binary)
Coefficient statistics:
  Matrix range     [1e-01, 1e+00]
  Objective range  [1e+00, 1e+00]
  Bounds range     [1e-01, 1e+00]
  RHS range        [6e-03, 2e+00]
Presolve removed 577 rows and 113 columns
Presolve time: 0.03s
Presolved: 405 rows, 378 columns, 1541 nonzeros
Variable types: 150 continuous, 228 integer (203 binary)
Found heuristic solution: objective 81.0000000
Found heuristic solution: objective 80.0000000

Root relaxation: objective 6.600000e+01, 235 iterations, 0.00 seconds (0.00 work units)

    Nodes    |    Current Node    |     Objective Bounds      |     Work
 Expl Unexpl |  Obj  Depth IntInf | Incumbent    BestBd   Gap | It/Node Time

     0     0   66.00000    0   35   80.00000   66.00000  17.5%     -    0s
H    0     0                      79.0000000   66.00000  16.5%     -    0s
     0     0   66.02362    0   55   79.00000   66.02362  16.4%     -    0s
H    0     0                      77.0000000   66.09893  14.2%     -    0s
     0     0   66.09893    0   55   77.00000   66.09893  14.2%     -    0s
     0     0   67.22141    0   73   77.00000   67.22141  12.7%     -    0s
     0     0   67.27210    0   62   77.00000   67.27210  12.6%     -    0s
     0     0   67.28845    0   70   77.00000   67.28845  12.6%     -    0s
     0     0   67.28878    0   70   77.00000   67.28878  12.6%     -    0s
     0     0   68.08281    0   78   77.00000   68.08281  11.6%     -    0s
     0     0   68.16848    0   75   77.00000   68.16848  11.5%     -    0s
     0     0   68.20331    0   80   77.00000   68.20331  11.4%     -    0s
     0     0   68.20818    0   85   77.00000   68.20818  11.4%     -    0s
     0     0   68.21341    0   84   77.00000   68.21341  11.4%     -    0s
     0     0   68.21364    0   84   77.00000   68.21364  11.4%     -    0s
     0     0   69.24854    0   58   77.00000   69.24854  10.1%     -    0s
     0     0   69.34702    0   69   77.00000   69.34702  9.94%     -    0s
     0     0   69.36258    0   68   77.00000   69.36258  9.92%     -    0s
     0     0   69.36366    0   73   77.00000   69.36366  9.92%     -    0s
     0     0   69.40543    0   61   77.00000   69.40543  9.86%     -    0s
     0     0   69.41886    0   67   77.00000   69.41886  9.85%     -    0s
     0     0   69.42094    0   70   77.00000   69.42094  9.84%     -    0s
     0     0   69.44590    0   77   77.00000   69.44590  9.81%     -    0s
     0     0   69.44822    0   72   77.00000   69.44822  9.81%     -    0s
     0     0   69.53092    0   74   77.00000   69.53092  9.70%     -    0s
H    0     0                      76.0000000   69.53553  8.51%     -    0s
     0     0   69.54239    0   75   76.00000   69.54239  8.50%     -    0s
     0     0   69.54493    0   73   76.00000   69.54493  8.49%     -    0s
     0     0   69.54496    0   79   76.00000   69.54496  8.49%     -    0s
     0     0   69.58361    0   82   76.00000   69.58361  8.44%     -    0s
     0     0   69.58718    0   75   76.00000   69.58718  8.44%     -    0s
     0     0   69.58857    0   80   76.00000   69.58857  8.44%     -    0s
     0     0   69.60057    0   76   76.00000   69.60057  8.42%     -    0s
     0     0   69.60532    0   74   76.00000   69.60532  8.41%     -    0s
     0     2   69.61380    0   71   76.00000   69.61380  8.40%     -    0s
H  157   105                      75.0000000   69.63803  7.15%  18.1    0s
H  590   319                      74.0000000   69.94834  5.48%  18.2    0s
  3087  1119   73.00000   45   22   74.00000   71.18685  3.80%  35.2    5s
  7367  2300   72.73219   29   50   74.00000   71.64399  3.18%  35.1   10s
 10203  2893   72.85810   29   74   74.00000   71.89631  2.84%  34.8   15s
 12145  2954 infeasible   55        74.00000   72.00000  2.70%  35.1   20s
 15985  3066   72.33333   52   45   74.00000   72.00000  2.70%  35.3   25s
 19849  3262   72.02569   38   43   74.00000   72.01390  2.68%  35.8   30s
 24120  4101   72.30209   53   60   74.00000   72.15004  2.50%  36.1   35s
 28324  4363     cutoff   54        74.00000   72.30969  2.28%  36.6   40s
 32141  4172   72.68781   38   87   74.00000   72.50000  2.03%  37.3   45s
 35819  3753     cutoff   46        74.00000   72.63857  1.84%  37.9   50s
 39930  3713     cutoff   41        74.00000   72.88505  1.51%  37.8   55s

Cutting planes:
  Learned: 1
  Gomory: 32
  Cover: 47
  Implied bound: 9
  MIR: 289
  Mixing: 13
  StrongCG: 11
  Flow cover: 340
  GUB cover: 3
  Inf proof: 16
  Zero half: 14
  RLT: 13
  Relax-and-lift: 42
  BQP: 3

Explored 42636 nodes (1606035 simplex iterations) in 57.97 seconds (44.02 work units)
Thread count was 1 (of 16 available processors)

Solution count 8: 74 74 75 ... 81

Optimal solution found (tolerance 1.00e-04)
Best objective 7.400000000000e+01, best bound 7.300000000000e+01, gap 1.3514%

User-callback calls 106542, time in user-callback 0.09 sec

 sepatime0
Stat(MathOptInterface.OPTIMAL, 74.0, 73.00000000000001, 0.013513513513513322, 0.0, 0.045826, 57.96719813346863, 42636, Main.CFLG.LEFP, "", #undef)
